Problem:    
Rows:       105
Columns:    45 (34 integer, 34 binary)
Non-zeros:  302
Status:     INTEGER OPTIMAL
Objective:  value = 125.95329 (MINimum)

   No.   Row name        Activity     Lower bound   Upper bound
------ ------------    ------------- ------------- -------------
     1 r.5                   125.953             0               
     2 r.6                   54.8228      -275.212               
     3 r.7                   625.953             0               
     4 r.8                  -417.738      -425.138               
     5 r.9                   625.953             0               
     6 r.10                 -422.444      -477.267               
     7 r.11                  125.953             0               
     8 r.12                 -8.24831      -488.641               
     9 r.13                  625.953             0               
    10 r.14                 -374.047      -451.602               
    11 r.15                  125.953             0               
    12 r.16                  7.39999      -484.352               
    13 r.17                  125.953             0               
    14 r.18                 -169.965      -365.827               
    15 r.19                  625.953             0               
    16 r.20                 -374.047      -456.309               
    17 r.21                  125.953             0               
    18 r.22                    1.745      -498.809               
    19 r.23                  625.953             0               
    20 r.24                 -498.255      -498.255               
    21 r.25                        1             1             = 
    22 r.26                        1             1             = 
    23 r.27                        1             1             = 
    24 r.28                        1             1             = 
    25 r.29                        1             1             = 
    26 r.30                  22.7328       22.7328               
    27 r.31                 -22.7328      -275.212               
    28 r.32                   409.49       11.3593               
    29 r.33                  -409.49      -425.138               
    30 r.34                  71.1305       48.3977               
    31 r.35                 -71.1305      -275.212               
    32 r.36                  425.138       15.6483               
    33 r.37                 -425.138      -425.138               
    34 r.38                  275.213       134.173               
    35 r.39                 -275.213      -275.212               
    36 r.40                  43.6913       43.6913               
    37 r.41                 -43.6913      -425.138               
    38 r.42                  53.0778      -271.572               
    39 r.43                 -419.483      -419.483               
    40 r.44                  53.0778      -271.572               
    41 r.45                 -419.483      -419.483               
    42 r.46                  477.267       224.787               
    43 r.47                 -477.267      -477.267               
    44 r.48                  90.5103        74.862               
    45 r.49                 -90.5103      -488.641               
    46 r.50                  48.3977       48.3977               
    47 r.51                 -48.3977      -477.267               
    48 r.52                  15.6483       15.6483               
    49 r.53                 -15.6483      -488.641               
    50 r.54                   252.48       134.173               
    51 r.55                  -252.48      -477.267               
    52 r.56                  134.202       43.6913               
    53 r.57                 -134.202      -488.641               
    54 r.58                 -424.189      -473.626               
    55 r.59                 -9.99331      -482.986               
    56 r.60                 -424.189      -473.626               
    57 r.61                 -9.99331      -482.986               
    58 r.62                  428.869       224.787               
    59 r.63                 -428.869      -451.602               
    60 r.64                   74.862        74.862               
    61 r.65                  -74.862      -484.352               
    62 r.66                  451.602       22.7328               
    63 r.67                 -451.602      -451.602               
    64 r.68                  484.352       11.3593               
    65 r.69                 -484.352      -484.352               
    66 r.70                  204.082       134.173               
    67 r.71                 -204.082      -451.602               
    68 r.72                  118.553       43.6913               
    69 r.73                 -118.553      -484.352               
    70 r.74                 -375.792      -447.961               
    71 r.75                  5.65499      -478.697               
    72 r.76                 -375.792      -447.961               
    73 r.77                  5.65499      -478.697               
    74 r.78                  224.787       224.787               
    75 r.79                 -224.787      -365.827               
    76 r.80                  456.309        74.862               
    77 r.81                 -456.309      -456.309               
    78 r.82                   247.52       22.7328               
    79 r.83                  -247.52      -365.827               
    80 r.84                  365.798       11.3593               
    81 r.85                 -365.798      -456.309               
    82 r.86                  295.918       48.3977               
    83 r.87                 -295.918      -365.827               
    84 r.88                  381.447       15.6483               
    85 r.89                 -381.447      -456.309               
    86 r.90                  -171.71      -362.187               
    87 r.91                 -375.792      -450.654               
    88 r.92                  -171.71      -362.187               
    89 r.93                 -375.792      -450.654               
    90 r.94                  53.0778      -271.572               
    91 r.95                 -419.483      -419.483               
    92 r.96                  53.0778      -271.572               
    93 r.97                 -419.483      -419.483               
    94 r.98                 -424.189      -473.626               
    95 r.99                 -9.99331      -482.986               
    96 r.100                -424.189      -473.626               
    97 r.101                -9.99331      -482.986               
    98 r.102                -375.792      -447.961               
    99 r.103                 5.65499      -478.697               
   100 r.104                -375.792      -447.961               
   101 r.105                 5.65499      -478.697               
   102 r.106                 -171.71      -362.187               
   103 r.107                -375.792      -450.654               
   104 r.108                 -171.71      -362.187               
   105 r.109                -375.792      -450.654               

   No. Column name       Activity     Lower bound   Upper bound
------ ------------    ------------- ------------- -------------
     1 tt                    125.953             0               
     2 s_1_1        *              0             0             1 
     3 t_1_1                 71.1305             0               
     4 s_2_1        *              1             0             1 
     5 t_2_1                 43.6913             0               
     6 s_1_2        *              1             0             1 
     7 t_1_2                 48.3977             0               
     8 s_2_2        *              0             0             1 
     9 t_2_2                 134.202             0               
    10 s_1_3        *              1             0             1 
    11 t_1_3                       0             0               
    12 s_2_3        *              0             0             1 
    13 t_2_3                 118.553             0               
    14 s_1_4        *              0             0             1 
    15 t_1_4                 295.918             0               
    16 s_2_4        *              1             0             1 
    17 t_2_4                       0             0               
    18 s_1_5        *              0             0             1 
    19 t_1_5                 124.208             0               
    20 s_2_5        *              1             0             1 
    21 t_2_5                 124.208             0               
    22 u_1_1_2      *              0             0             1 
    23 u_2_1_2      *              1             0             1 
    24 u_1_1_3      *              0             0             1 
    25 u_2_1_3      *              1             0             1 
    26 u_1_1_4      *              1             0             1 
    27 u_2_1_4      *              0             0             1 
    28 u_1_2_1      *              1             0             1 
    29 u_2_2_1      *              0             0             1 
    30 u_1_2_3      *              0             0             1 
    31 u_2_2_3      *              0             0             1 
    32 u_1_2_4      *              1             0             1 
    33 u_2_2_4      *              0             0             1 
    34 u_1_3_1      *              1             0             1 
    35 u_2_3_1      *              0             0             1 
    36 u_1_3_2      *              1             0             1 
    37 u_2_3_2      *              1             0             1 
    38 u_1_3_4      *              1             0             1 
    39 u_2_3_4      *              0             0             1 
    40 u_1_4_1      *              0             0             1 
    41 u_2_4_1      *              1             0             1 
    42 u_1_4_2      *              0             0             1 
    43 u_2_4_2      *              1             0             1 
    44 u_1_4_3      *              0             0             1 
    45 u_2_4_3      *              1             0             1 

Integer feasibility conditions:

KKT.PE: max.abs.err = 1.14e-13 on row 6
        max.rel.err = 1.04e-16 on row 6
        High quality

KKT.PB: max.abs.err = 5.68e-14 on row 35
        max.rel.err = 1.39e-15 on row 48
        High quality

End of output
